15 4 
3112	3112	3112	3112	
992	311	343	
826	466	467	
96	995	1437	
630	425	828	
522	132	211	
442	578	612	
687	476	771	
348	247	475	
571	62	111	
764	253	416	
883	242	315	
773	949	1544	
27	341	638	
479	268	282	
874	480	747	
